
set I:= 2	3	4 5 6	7 	8	9	10	11 12 13	14	15 16	17	18	19	20 21 22 
23 24 25 26 27 28 29 30 31 32 33 34 35 36 37 38 39 40 41 42 43 44 45 46 47 48 49 50 51
52 53 54 55 56 57 58 59 60 61 62 63 64 65 66 67 68 69 70 71 72 73 74 75 76;

set Nodos:= 1 2	3	4 5 6	7 	8	9	10	11 12 13	14	15 16	17	18	19	20 21 22
23 24 25 26 27 28 29 30 31 32 33 34 35 36 37 38 39 40 41 42 43 44 45 46 47 48 49 50 51
52 53 54 55 56 57 58 59 60 61 62 63 64 65 66 67 68 69 70 71 72 73 74 75 76;

set K:= 1 2 3;
set R:= A B C;
set T:= A B C;


param: xcoord	ycoord :=
1	0	0
2	-2	-5
3	3	-1
4	-2	7
5	3	0
6	7	-3
7	-5	-1
8	-3	0
9	0	-3
10	4	1
11	4	-5
12	-2	-4
13	5	-5
14	-4	1
15	-2	3
16	7	2
17	-13	80
18	-6	88
19	-16	83
20	-14	77
21	-26	88
22	-24	79
23	-25	78
24	-11	80
25	-5	88
26	-21	90
27	-5	82
28	-20	80
29	-6	91
30	-25	89
31	-25	74
32	-8	88
33	-21	74
34	-23	74
35	-5	87
36	-8	91
37	-3	-8
38	-30	15
39	-14	24
40	-12	11
41	-1	7
42	2	14
43	-26	15
44	-36	2
45	-29	7
46	-1	28
47	-7	17
48	-10	31
49	-20	-2
50	-33	20
51	-26	0
52	-13	9
53	-8	12
54	-35	-8
55	-33	23
56	10	-70
57	8	-95
58	-12	-101
59	6	-113
60	-17	-76
61	-23	-102
62	11	-104
63	-19	-96
64	-13	-79
65	-53	-32
66	-78	-2
67	-87	-61
68	-60	-32
69	-6	-12
70	10	-16
71	-7	-11
72	0	3
73	10	2
74	-1	-15
75	1	-3
76	15	-2

;

param Q:=
1   30000
2   30000
3   30000
;

param P:=
A   20000
B   25000
C   25000
;


param alfa:=
A   1
B    .70
C    .30
;

param q:  A   B   C:=
1	0	0	0
2	5330	0	0
3	0	4205	0
4	0	0	370
5	3435	0	0
6	0	875	0
7	0	0	915
8	620	0	0
9	0	20	0
10	0	0	405
11	280	0	0
12	0	145	0
13	0	0	115
14	20	0	0
15	0	45	0
16	0	0	35
17	905	0	0
18	0	270	0
19	0	0	4420
20	4110	0	0
21	0	3185	0
22	0	0	295
23	700	0	0
24	0	2655	0
25	0	0	290
26	75	0	0
27	0	55	0
28	0	0	925
29	795	0	0
30	0	1425	0
31	0	0	20
32	50	0	0
33	0	15	0
34	0	0	20
35	55	0	0
36	0	225	0
37	0	0	20
38	1125	0	0
39	0	1430	0
40	0	0	1310
41	20	0	0
42	0	1955	0
43	0	0	270
44	2590	0	0
45	0	4075	0
46	0	0	125
47	145	0	0
48	0	90	0
49	0	0	2940
50	340	0	0
51	0	2400	0
52	0	0	25
53	80	0	0
54	0	170	0
55	0	0	25
56	45	0	0
57	0	110	0
58	0	0	600
59	760	0	0
60	0	105	0
61	0	0	220
62	3380	0	0
63	0	85	0
64	0	0	3820
65	65	0	0
66	0	30	0
67	0	0	3590
68	260	0	0
69	0	55	0
70	0	0	465
71	1990	0	0
72	0	240	0
73	0	0	185
74	15	0	0
75	0	40	0
76	0	0	2030

;

param a:  A   B   C:=
1	0	0	0
2	1	0	0
3	0	1	0
4	0	0	1
5	1	0	0
6	0	1	0
7	0	0	1
8	1	0	0
9	0	1	0
10	0	0	1
11	1	0	0
12	0	1	0
13	0	0	1
14	1	0	0
15	0	1	0
16	0	0	1
17	1	0	0
18	0	1	0
19	0	0	1
20	1	0	0
21	0	1	0
22	0	0	1
23	1	0	0
24	0	1	0
25	0	0	1
26	1	0	0
27	0	1	0
28	0	0	1
29	1	0	0
30	0	1	0
31	0	0	1
32	1	0	0
33	0	1	0
34	0	0	1
35	1	0	0
36	0	1	0
37	0	0	1
38	1	0	0
39	0	1	0
40	0	0	1
41	1	0	0
42	0	1	0
43	0	0	1
44	1	0	0
45	0	1	0
46	0	0	1
47	1	0	0
48	0	1	0
49	0	0	1
50	1	0	0
51	0	1	0
52	0	0	1
53	1	0	0
54	0	1	0
55	0	0	1
56	1	0	0
57	0	1	0
58	0	0	1
59	1	0	0
60	0	1	0
61	0	0	1
62	1	0	0
63	0	1	0
64	0	0	1
65	1	0	0
66	0	1	0
67	0	0	1
68	1	0	0
69	0	1	0
70	0	0	1
71	1	0	0
72	0	1	0
73	0	0	1
74	1	0	0
75	0	1	0
76	0	0	1

;

param qu :=
1	0
2	5330
3	4205
4	370
5	3435
6	875
7	915
8	620
9	20
10	405
11	280
12	145
13	115
14	20
15	45
16	35
17	905
18	270
19	4420
20	4110
21	3185
22	295
23	700
24	2655
25	290
26	75
27	55
28	925
29	795
30	1425
31	20
32	50
33	15
34	20
35	55
36	225
37	20
38	1125
39	1430
40	1310
41	20
42	1955
43	270
44	2590
45	4075
46	125
47	145
48	90
49	2940
50	340
51	2400
52	25
53	80
54	170
55	25
56	45
57	110
58	600
59	760
60	105
61	220
62	3380
63	85
64	3820
65	65
66	30
67	3590
68	260
69	55
70	465
71	1990
72	240
73	185
74	15
75	40
76	2030


;

set IT:=
(	2	,	A	)
(	3	,	B	)
(	4	,	C	)
(	5	,	A	)
(	6	,	B	)
(	7	,	C	)
(	8	,	A	)
(	9	,	B	)
(	10	,	C	)
(	11	,	A	)
(	12	,	B	)
(	13	,	C	)
(	14	,	A	)
(	15	,	B	)
(	16	,	C	)
(	17	,	A	)
(	18	,	B	)
(	19	,	C	)
(	20	,	A	)
(	21	,	B	)
(	22	,	C	)
(	23	,	A	)
(	24	,	B	)
(	25	,	C	)
(	26	,	A	)
(	27	,	B	)
(	28	,	C	)
(	29	,	A	)
(	30	,	B	)
(	31	,	C	)
(	32	,	A	)
(	33	,	B	)
(	34	,	C	)
(	35	,	A	)
(	36	,	B	)
(	37	,	C	)
(	38	,	A	)
(	39	,	B	)
(	40	,	C	)
(	41	,	A	)
(	42	,	B	)
(	43	,	C	)
(	44	,	A	)
(	45	,	B	)
(	46	,	C	)
(	47	,	A	)
(	48	,	B	)
(	49	,	C	)
(	50	,	A	)
(	51	,	B	)
(	52	,	C	)
(	53	,	A	)
(	54	,	B	)
(	55	,	C	)
(	56	,	A	)
(	57	,	B	)
(	58	,	C	)
(	59	,	A	)
(	60	,	B	)
(	61	,	C	)
(	62	,	A	)
(	63	,	B	)
(	64	,	C	)
(	65	,	A	)
(	66	,	B	)
(	67	,	C	)
(	68	,	A	)
(	69	,	B	)
(	70	,	C	)
(	71	,	A	)
(	72	,	B	)
(	73	,	C	)
(	74	,	A	)
(	75	,	B	)
(	76	,	C	)

;